9
10
0 18 52 59 13 8 27 17 26 12
9
0 41 19 35 55 15 39 56 9
6
0 16 40 28 49 22
6
0 25 11 34 50 32
8
0 33 38 7 29 57 37 43
11
0 14 47 23 58 24 1 48 5 42 51
5
0 20 4 53 10
7
0 46 21 31 44 30 45
6
0 3 6 2 36 54
